outputs/case_430.model.txt
capital_adequacy_ratio = 45
improvement_after_counseling = False
accelerated_deterioration = False
net_worth_ratio = 3/2
capital_plan_completed = True
improvement_plan_approved = False
net_worth = -100
level_4_measures_executed = False
improvement_plan_executed = False
level_3_measures_executed = False
improvement_plan_submitted = False
severe_insufficiency_and_no_capital_plan = False
penalty = False
capital_level_adequate = False
capital_level_severe_insufficiency = True
accelerated_deterioration_and_no_improvement = False
significant_deterioration_and_no_approved_plan = False
capital_level_2_measures_executed = False
capital_level = 4
capital_level_significant_deterioration = False
capital_level_insufficient = False
capital_level_4_measures_executed = False
capital_level_3_measures_executed = False